50
80.0
0 49 1.44 0.1
1 48 1.37 0.08
2 47 1.23 0.05
3 46 1.39 0.03
4 45 1.43 0.05
5 44 1.25 0.03
6 43 1.28 0.01
7 42 1.27 0.03
8 41 1.0 0.01
9 40 1.34 0.02
10 39 1.08 0.01
11 38 1.28 0.01
12 37 1.2 0.02
13 36 1.31 0.01
14 35 1.4 0.02
15 34 1.34 0.05
16 33 1.48 0.01
17 32 1.42 0.02
18 31 1.15 0.04
19 30 1.43 0.02
20 29 1.19 0.01
21 28 1.24 0.03
22 27 1.48 0.05
23 26 1.33 0.01
24 25 1.22 0.4
25 24 1.54 0.02
26 23 1.47 0.01
27 22 1.75 0.02
28 21 1.13 0.03
29 20 1.26 0.05
30 19 1.64 0.01
31 18 1.77 0.05
32 17 1.21 0.01
33 16 1.55 0.05
34 15 1.25 0.01
35 14 1.38 0.01
36 13 1.01 0.01
37 12 0.86 0.01
38 11 1.06 0.01
39 10 1.33 0.04
40 9 0.99 0.01
41 8 1.94 0.03
42 7 0.83 0.01
43 6 2.15 0.66
44 5 1.0 0.02
45 4 0.63 0.0
46 3 1.01 0.01
47 2 1.78 0.01
48 1 1.37 0.02
